25 40
1 2 4
1 6 1
2 3 2
2 7 4
3 4 1
3 8 3
4 5 3
4 9 2
5 10 4
6 7 5
6 11 3
7 8 4
7 12 5
8 9 4
8 13 4
9 10 1
9 14 3
10 15 5
11 12 5
11 16 2
12 13 3
12 17 2
13 14 4
13 18 4
14 15 2
14 19 3
15 20 1
16 17 3
16 21 2
17 18 3
17 22 4
18 19 4
18 23 5
19 20 5
19 24 4
20 25 1
21 22 5
22 23 5
23 24 3
24 25 4
